experiment/data/lkh-res/Vrp-Set-X-n125/Vrp-Set-X-n125-lkh/0.lkh1.vrp
NAME : 0
COMMENT : CVRP Instance
TYPE : CVRP
DIMENSION : 125
EDGE_WEIGHT_TYPE : EUC_2D
CAPACITY : 188
NODE_COORD_SECTION
1	98900	94400
2	500	73000
3	76900	20000
4	69800	51500
5	7200	56100
6	5200	39700
7	77100	17700
8	8100	53700
9	4300	37100
10	71600	20200
11	10600	40600
12	62700	17200
13	1000	33800
14	77600	43200
15	76100	46900
16	75900	28700
17	59300	36300
18	77300	29000
19	12900	39800
20	70900	19300
21	9900	56400
22	16300	41800
23	4800	61900
24	90700	40600
25	92900	52700
26	6900	67200
27	67500	96000
28	5000	76300
29	73600	24000
30	4600	51800
31	12800	79300
32	69900	58100
33	5800	39800
34	4300	39300
35	78300	18600
36	5800	36000
37	4500	71200
38	3800	39300
39	65200	52400
40	3700	36400
41	3700	61700
42	6100	53400
43	66400	35800
44	55500	44500
45	71200	46500
46	3800	46900
47	200	72900
48	6500	62000
49	15600	49700
50	85700	47500
51	77300	23400
52	87900	9800
53	68500	46600
54	2100	42100
55	10900	53600
56	6000	73800
57	89700	56400
58	9600	38300
59	7600	58200
60	73900	19300
61	66900	54800
62	28400	46200
63	19300	81300
64	1500	69600
65	10200	54100
66	2800	57800
67	82800	29200
68	7300	51900
69	7000	64500
70	4000	43300
71	74500	15900
72	0	48600
73	7500	51100
74	22800	31200
75	73200	42700
76	6100	40700
77	49500	62100
78	8400	53800
79	75100	24600
80	2200	71400
81	6300	57100
82	64100	35000
83	87300	54000
84	21100	41800
85	28700	61800
86	15500	79600
87	62700	59500
88	54600	19900
89	79500	5800
90	80500	1500
91	64900	48600
92	14500	37700
93	67300	31900
94	70000	67800
95	8600	62300
96	15800	61300
97	67300	61900
98	73800	44400
99	1700	44900
100	12200	18200
101	10800	33400
102	10000	55000
103	67700	50500
104	2300	36500
105	2000	51200
106	89200	4100
107	45200	45700
108	7000	54100
109	22400	93100
110	6700	69200
111	19800	31700
112	51300	73100
113	15900	36900
114	5100	37800
115	55600	13700
116	80000	10000
117	79500	27800
118	15800	77300
119	4300	65600
120	4100	48800
121	7000	37500
122	13200	54500
123	20300	32800
124	72800	46700
125	75900	20800
DEMAND_SECTION
1	0
2	32
3	7
4	83
5	30
6	62
7	26
8	31
9	75
10	5
11	85
12	15
13	94
14	16
15	38
16	32
17	5
18	17
19	92
20	50
21	16
22	79
23	11
24	33
25	60
26	11
27	96
28	46
29	48
30	31
31	25
32	96
33	71
34	61
35	3
36	100
37	6
38	94
39	88
40	53
41	19
42	50
43	19
44	39
45	21
46	95
47	7
48	40
49	51
50	16
51	47
52	13
53	30
54	56
55	5
56	9
57	95
58	70
59	5
60	31
61	80
62	53
63	28
64	38
65	7
66	28
67	18
68	31
69	6
70	71
71	1
72	84
73	47
74	68
75	12
76	88
77	39
78	31
79	6
80	30
81	19
82	38
83	74
84	75
85	2
86	31
87	67
88	47
89	47
90	36
91	20
92	65
93	17
94	81
95	38
96	8
97	95
98	18
99	70
100	95
101	65
102	42
103	88
104	88
105	5
106	43
107	76
108	46
109	17
110	36
111	74
112	97
113	86
114	65
115	38
116	47
117	41
118	17
119	7
120	52
121	98
122	39
123	59
124	10
125	50
DEPOT_SECTION
1
-1
EOF
