experiment/data/lkh-res/Vrp-Set-X-n125/Vrp-Set-X-n125-lkh/0.lkh1.log
PARAMETER_FILE = baseline_results/cvrp_lkh/Vrp-Set-X-n125/Vrp-Set-X-n125-lkh/0.lkh1.par
Reading PROBLEM_FILE: "baseline_results/cvrp_lkh/Vrp-Set-X-n125/Vrp-Set-X-n125-lkh/0.lkh1.vrp" ... done
ASCENT_CANDIDATES = 50
BACKBONE_TRIALS = 0
BACKTRACKING = NO
# BWTSP =
# CANDIDATE_FILE =
CANDIDATE_SET_TYPE = ALPHA
# DISTANCE =
DEPOT = 1
# EDGE_FILE =
EXCESS = 0.008
EXTERNAL_SALESMEN = 0
EXTRA_CANDIDATES = 0 
EXTRA_CANDIDATE_SET_TYPE = QUADRANT
GAIN23 = NO
GAIN_CRITERION = YES
INITIAL_PERIOD = 100
INITIAL_STEP_SIZE = 1
INITIAL_TOUR_ALGORITHM = WALK
# INITIAL_TOUR_FILE = 
INITIAL_TOUR_FRACTION = 1.000
# INPUT_TOUR_FILE = 
KICK_TYPE = 4
KICKS = 1
# MAX_BREADTH =
MAKESPAN = NO
MAX_CANDIDATES = 5 
MAX_SWAPS = 0
MAX_TRIALS = 10000
# MERGE_TOUR_FILE =
MOVE_TYPE = 5 SPECIAL
MTSP_MIN_SIZE = 1
MTSP_MAX_SIZE = 124
# MTSP_SOLUTION_FILE = 
# NONSEQUENTIAL_MOVE_TYPE = 5
# OPTIMUM =
OUTPUT_TOUR_FILE = baseline_results/cvrp_lkh/Vrp-Set-X-n125/Vrp-Set-X-n125-lkh/0.lkh1.tour
PATCHING_A = 1 
PATCHING_C = 0 
# PI_FILE = 
POPMUSIC_INITIAL_TOUR = NO
POPMUSIC_MAX_NEIGHBORS = 5
POPMUSIC_SAMPLE_SIZE = 10
POPMUSIC_SOLUTIONS = 50
POPMUSIC_TRIALS = 1
POPULATION_SIZE = 10
PRECISION = 100
PROBLEM_FILE = baseline_results/cvrp_lkh/Vrp-Set-X-n125/Vrp-Set-X-n125-lkh/0.lkh1.vrp
RECOMBINATION = IPT
RESTRICTED_SEARCH = YES
RUNS = 1
SALESMEN = 30
SCALE = 1
SEED = 1234
# SINTEF_SOLUTION_FILE = 
STOP_AT_OPTIMUM = YES
SUBGRADIENT = YES
# SUBPROBLEM_SIZE =
# SUBPROBLEM_TOUR_FILE = 
SUBSEQUENT_MOVE_TYPE = 5 SPECIAL
SUBSEQUENT_PATCHING = YES
# TIME_LIMIT =
# TOTAL_TIME_LIMIT =
# TOUR_FILE = 
TRACE_LEVEL = 1
VEHICLES = 30

Lower bound = 3615797.0, Ascent time = 0.05 sec.
Cand.min = 5, Cand.avg = 5.0, Cand.max = 5
Preprocessing time = 0.05 sec.
* 1: Cost = 0_6090013, Time = 0.14 sec. 
Writing OUTPUT_TOUR_FILE: "baseline_results/cvrp_lkh/Vrp-Set-X-n125/Vrp-Set-X-n125-lkh/0.lkh1.tour" ... done
* 2: Cost = 0_5952586, Time = 0.28 sec. 
Writing OUTPUT_TOUR_FILE: "baseline_results/cvrp_lkh/Vrp-Set-X-n125/Vrp-Set-X-n125-lkh/0.lkh1.tour" ... done
* 4: Cost = 0_5945135, Time = 0.45 sec. 
Writing OUTPUT_TOUR_FILE: "baseline_results/cvrp_lkh/Vrp-Set-X-n125/Vrp-Set-X-n125-lkh/0.lkh1.tour" ... done
* 6: Cost = 0_5910653, Time = 0.54 sec. 
Writing OUTPUT_TOUR_FILE: "baseline_results/cvrp_lkh/Vrp-Set-X-n125/Vrp-Set-X-n125-lkh/0.lkh1.tour" ... done
* 7: Cost = 0_5910490, Time = 0.57 sec. 
Writing OUTPUT_TOUR_FILE: "baseline_results/cvrp_lkh/Vrp-Set-X-n125/Vrp-Set-X-n125-lkh/0.lkh1.tour" ... done
* 8: Cost = 0_5881460, Time = 0.59 sec. 
Writing OUTPUT_TOUR_FILE: "baseline_results/cvrp_lkh/Vrp-Set-X-n125/Vrp-Set-X-n125-lkh/0.lkh1.tour" ... done
* 10: Cost = 0_5839853, Time = 0.70 sec. 
Writing OUTPUT_TOUR_FILE: "baseline_results/cvrp_lkh/Vrp-Set-X-n125/Vrp-Set-X-n125-lkh/0.lkh1.tour" ... done
* 15: Cost = 0_5835006, Time = 0.89 sec. 
Writing OUTPUT_TOUR_FILE: "baseline_results/cvrp_lkh/Vrp-Set-X-n125/Vrp-Set-X-n125-lkh/0.lkh1.tour" ... done
* 20: Cost = 0_5829243, Time = 1.13 sec. 
Writing OUTPUT_TOUR_FILE: "baseline_results/cvrp_lkh/Vrp-Set-X-n125/Vrp-Set-X-n125-lkh/0.lkh1.tour" ... done
* 22: Cost = 0_5811052, Time = 1.24 sec. 
Writing OUTPUT_TOUR_FILE: "baseline_results/cvrp_lkh/Vrp-Set-X-n125/Vrp-Set-X-n125-lkh/0.lkh1.tour" ... done
* 25: Cost = 0_5803541, Time = 1.43 sec. 
Writing OUTPUT_TOUR_FILE: "baseline_results/cvrp_lkh/Vrp-Set-X-n125/Vrp-Set-X-n125-lkh/0.lkh1.tour" ... done
* 30: Cost = 0_5771856, Time = 1.57 sec. 
Writing OUTPUT_TOUR_FILE: "baseline_results/cvrp_lkh/Vrp-Set-X-n125/Vrp-Set-X-n125-lkh/0.lkh1.tour" ... done
* 35: Cost = 0_5766321, Time = 1.75 sec. 
Writing OUTPUT_TOUR_FILE: "baseline_results/cvrp_lkh/Vrp-Set-X-n125/Vrp-Set-X-n125-lkh/0.lkh1.tour" ... done
* 41: Cost = 0_5754212, Time = 1.96 sec. 
Writing OUTPUT_TOUR_FILE: "baseline_results/cvrp_lkh/Vrp-Set-X-n125/Vrp-Set-X-n125-lkh/0.lkh1.tour" ... done
* 45: Cost = 0_5745979, Time = 2.15 sec. 
Writing OUTPUT_TOUR_FILE: "baseline_results/cvrp_lkh/Vrp-Set-X-n125/Vrp-Set-X-n125-lkh/0.lkh1.tour" ... done
* 52: Cost = 0_5736212, Time = 2.52 sec. 
Writing OUTPUT_TOUR_FILE: "baseline_results/cvrp_lkh/Vrp-Set-X-n125/Vrp-Set-X-n125-lkh/0.lkh1.tour" ... done
* 56: Cost = 0_5705951, Time = 2.70 sec. 
Writing OUTPUT_TOUR_FILE: "baseline_results/cvrp_lkh/Vrp-Set-X-n125/Vrp-Set-X-n125-lkh/0.lkh1.tour" ... done
* 58: Cost = 0_5657538, Time = 2.81 sec. 
Writing OUTPUT_TOUR_FILE: "baseline_results/cvrp_lkh/Vrp-Set-X-n125/Vrp-Set-X-n125-lkh/0.lkh1.tour" ... done
* 81: Cost = 0_5653979, Time = 4.19 sec. 
Writing OUTPUT_TOUR_FILE: "baseline_results/cvrp_lkh/Vrp-Set-X-n125/Vrp-Set-X-n125-lkh/0.lkh1.tour" ... done
* 82: Cost = 0_5652671, Time = 4.19 sec. 
Writing OUTPUT_TOUR_FILE: "baseline_results/cvrp_lkh/Vrp-Set-X-n125/Vrp-Set-X-n125-lkh/0.lkh1.tour" ... done
* 100: Cost = 0_5650113, Time = 4.87 sec. 
Writing OUTPUT_TOUR_FILE: "baseline_results/cvrp_lkh/Vrp-Set-X-n125/Vrp-Set-X-n125-lkh/0.lkh1.tour" ... done
* 102: Cost = 0_5642866, Time = 4.97 sec. 
Writing OUTPUT_TOUR_FILE: "baseline_results/cvrp_lkh/Vrp-Set-X-n125/Vrp-Set-X-n125-lkh/0.lkh1.tour" ... done
* 103: Cost = 0_5641570, Time = 5.00 sec. 
Writing OUTPUT_TOUR_FILE: "baseline_results/cvrp_lkh/Vrp-Set-X-n125/Vrp-Set-X-n125-lkh/0.lkh1.tour" ... done
* 109: Cost = 0_5641036, Time = 5.24 sec. 
Writing OUTPUT_TOUR_FILE: "baseline_results/cvrp_lkh/Vrp-Set-X-n125/Vrp-Set-X-n125-lkh/0.lkh1.tour" ... done
* 117: Cost = 0_5639530, Time = 5.64 sec. 
Writing OUTPUT_TOUR_FILE: "baseline_results/cvrp_lkh/Vrp-Set-X-n125/Vrp-Set-X-n125-lkh/0.lkh1.tour" ... done
* 127: Cost = 0_5633043, Time = 6.04 sec. 
Writing OUTPUT_TOUR_FILE: "baseline_results/cvrp_lkh/Vrp-Set-X-n125/Vrp-Set-X-n125-lkh/0.lkh1.tour" ... done
* 141: Cost = 0_5632946, Time = 6.69 sec. 
Writing OUTPUT_TOUR_FILE: "baseline_results/cvrp_lkh/Vrp-Set-X-n125/Vrp-Set-X-n125-lkh/0.lkh1.tour" ... done
* 153: Cost = 0_5630783, Time = 7.17 sec. 
Writing OUTPUT_TOUR_FILE: "baseline_results/cvrp_lkh/Vrp-Set-X-n125/Vrp-Set-X-n125-lkh/0.lkh1.tour" ... done
* 165: Cost = 0_5630031, Time = 7.47 sec. 
Writing OUTPUT_TOUR_FILE: "baseline_results/cvrp_lkh/Vrp-Set-X-n125/Vrp-Set-X-n125-lkh/0.lkh1.tour" ... done
* 211: Cost = 0_5625418, Time = 9.38 sec. 
Writing OUTPUT_TOUR_FILE: "baseline_results/cvrp_lkh/Vrp-Set-X-n125/Vrp-Set-X-n125-lkh/0.lkh1.tour" ... done
* 244: Cost = 0_5622267, Time = 11.36 sec. 
Writing OUTPUT_TOUR_FILE: "baseline_results/cvrp_lkh/Vrp-Set-X-n125/Vrp-Set-X-n125-lkh/0.lkh1.tour" ... done
* 256: Cost = 0_5620956, Time = 12.02 sec. 
Writing OUTPUT_TOUR_FILE: "baseline_results/cvrp_lkh/Vrp-Set-X-n125/Vrp-Set-X-n125-lkh/0.lkh1.tour" ... done
* 267: Cost = 0_5605369, Time = 12.31 sec. 
Writing OUTPUT_TOUR_FILE: "baseline_results/cvrp_lkh/Vrp-Set-X-n125/Vrp-Set-X-n125-lkh/0.lkh1.tour" ... done
* 308: Cost = 0_5604439, Time = 13.95 sec. 
Writing OUTPUT_TOUR_FILE: "baseline_results/cvrp_lkh/Vrp-Set-X-n125/Vrp-Set-X-n125-lkh/0.lkh1.tour" ... done
* 375: Cost = 0_5600276, Time = 17.29 sec. 
Writing OUTPUT_TOUR_FILE: "baseline_results/cvrp_lkh/Vrp-Set-X-n125/Vrp-Set-X-n125-lkh/0.lkh1.tour" ... done
* 438: Cost = 0_5595515, Time = 19.56 sec. 
Writing OUTPUT_TOUR_FILE: "baseline_results/cvrp_lkh/Vrp-Set-X-n125/Vrp-Set-X-n125-lkh/0.lkh1.tour" ... done
* 473: Cost = 0_5594994, Time = 21.42 sec. 
Writing OUTPUT_TOUR_FILE: "baseline_results/cvrp_lkh/Vrp-Set-X-n125/Vrp-Set-X-n125-lkh/0.lkh1.tour" ... done
* 479: Cost = 0_5594207, Time = 21.74 sec. 
Writing OUTPUT_TOUR_FILE: "baseline_results/cvrp_lkh/Vrp-Set-X-n125/Vrp-Set-X-n125-lkh/0.lkh1.tour" ... done
* 510: Cost = 0_5584834, Time = 23.04 sec. 
Writing OUTPUT_TOUR_FILE: "baseline_results/cvrp_lkh/Vrp-Set-X-n125/Vrp-Set-X-n125-lkh/0.lkh1.tour" ... done
* 547: Cost = 0_5584767, Time = 24.50 sec. 
Writing OUTPUT_TOUR_FILE: "baseline_results/cvrp_lkh/Vrp-Set-X-n125/Vrp-Set-X-n125-lkh/0.lkh1.tour" ... done
* 556: Cost = 0_5580162, Time = 24.86 sec. 
Writing OUTPUT_TOUR_FILE: "baseline_results/cvrp_lkh/Vrp-Set-X-n125/Vrp-Set-X-n125-lkh/0.lkh1.tour" ... done
* 2052: Cost = 0_5577950, Time = 86.32 sec. 
Writing OUTPUT_TOUR_FILE: "baseline_results/cvrp_lkh/Vrp-Set-X-n125/Vrp-Set-X-n125-lkh/0.lkh1.tour" ... done
* 2192: Cost = 0_5576804, Time = 93.46 sec. 
Writing OUTPUT_TOUR_FILE: "baseline_results/cvrp_lkh/Vrp-Set-X-n125/Vrp-Set-X-n125-lkh/0.lkh1.tour" ... done
* 2446: Cost = 0_5576523, Time = 103.12 sec. 
Writing OUTPUT_TOUR_FILE: "baseline_results/cvrp_lkh/Vrp-Set-X-n125/Vrp-Set-X-n125-lkh/0.lkh1.tour" ... done
* 3611: Cost = 0_5576081, Time = 151.21 sec. 
Writing OUTPUT_TOUR_FILE: "baseline_results/cvrp_lkh/Vrp-Set-X-n125/Vrp-Set-X-n125-lkh/0.lkh1.tour" ... done
* 5618: Cost = 0_5573117, Time = 236.95 sec. 
Writing OUTPUT_TOUR_FILE: "baseline_results/cvrp_lkh/Vrp-Set-X-n125/Vrp-Set-X-n125-lkh/0.lkh1.tour" ... done
* 5619: Cost = 0_5570470, Time = 236.96 sec. 
Writing OUTPUT_TOUR_FILE: "baseline_results/cvrp_lkh/Vrp-Set-X-n125/Vrp-Set-X-n125-lkh/0.lkh1.tour" ... done
* 7933: Cost = 0_5570073, Time = 327.03 sec. 
Writing OUTPUT_TOUR_FILE: "baseline_results/cvrp_lkh/Vrp-Set-X-n125/Vrp-Set-X-n125-lkh/0.lkh1.tour" ... done
Population:
  1: 0_5570073
Run 1: Cost = 0_5570073, Time = 424.82 sec. 

Successes/Runs = 0/1 
Cost.min = 5570073, Cost.avg = 5570073.00, Cost.max = 5570073
Gap.min = 0.0000%, Gap.avg = 0.0000%, Gap.max = 0.0000%
Penalty.min = 0, Penalty.avg = 0.00, Penalty.max = 0
Trials.min = 10000, Trials.avg = 10000.0, Trials.max = 10000
Time.min = 424.82 sec., Time.avg = 424.82 sec., Time.max = 424.82 sec.
Time.total = 424.87 sec.
  Size.min = 2, Size.max = 10, Penalty = 0
  Cost.min = 97582, Cost.max = 240280, Cost.sum = 5570073
Best CVRP solution:
  Cost = 0_5570073

