experiment/data/lkh-res/Vrp-Set-X-n125/Vrp-Set-X-n125-lkh/0.lkh1.tour
NAME : 0.5570073.tour
COMMENT : Length = 5570073
COMMENT : Found by LKH-3 [Keld Helsgaun] Tue Apr  9 03:15:43 2024
TYPE : TOUR
DIMENSION : 154
TOUR_SECTION
1
11
121
154
54
40
9
140
76
46
55
147
49
101
92
146
19
113
152
74
100
17
43
150
21
30
105
72
120
153
71
116
89
90
106
52
142
45
82
93
16
18
117
67
151
85
68
22
84
137
15
124
98
75
14
24
25
129
97
39
138
63
86
31
2
47
28
109
127
73
99
70
149
95
48
119
64
80
37
56
118
135
51
35
7
3
125
29
79
141
5
108
42
8
78
139
103
91
61
134
4
32
131
62
123
111
130
38
13
148
77
107
44
53
144
114
34
6
143
60
10
20
12
115
88
145
58
33
65
122
132
96
102
59
81
66
41
23
69
26
110
133
87
112
136
104
36
128
83
50
57
126
94
27
-1
EOF
